ID_groupA,ID_groupB,ID_groupC,ID_groupD,ID_groupE
44614,78261,84647,72809,83244
82625,21958,84647,12085,83244
82625,74617,84647,12085,83244
82625,74617,84647,72809,83244
82625,41743,84647,62264,83244
74284,74617,84647,72809,83244
74284,74617,84647,72809,83244
82625,21958,84647,38848,83244
82625,21958,84647,38848,83244
44614,78261,84647,72809,83244
44614,78261,84647,72809,83244
82625,74617,84647,12085,83244
82625,74617,84647,72809,83244
82625,41743,84647,12085,83244
82625,21958,84647,48314,83244
82625,74617,84647,12085,83244
82625,74617,84647,48314,83244
82625,41743,84647,48314,83244
44614,78261,84647,48314,83244
44614,74617,84647,48314,83244
82625,74617,84647,12085,83244
82625,21958,84647,48314,83244
82625,21958,84647,48314,83244
44614,41743,84647,48314,83244
82625,78261,84647,48314,83244
82625,74617,84647,48314,83244
82625,21958,84647,38848,83244
82625,74617,84647,12085,83244
82625,74617,84647,38848,83244
82625,21958,84647,62264,83244
4563,21958,84647,62264,83244
82625,21958,84647,38848,83244
82625,21958,84647,38848,83244
82625,21958,84647,12085,83244
82625,21958,84647,38848,83244
82625,21958,84647,38848,83244
82625,21958,84647,48314,83244
82625,21958,84647,38848,83244
82625,21958,84647,12085,83244
82625,74617,84647,38848,83244
82625,21958,84647,38848,83244
82625,21958,84647,38848,83244
82625,21958,84647,38848,83244
82625,21958,84647,38848,83244
82625,21958,84647,38848,83244
82625,21958,84647,38848,83244
82625,21958,84647,38848,83244
82625,41743,84647,38848,83244
82625,21958,84647,38848,83244
82625,74617,84647,12085,83244
82625,74617,84647,12085,83244
82625,74617,84647,12085,83244
82625,74617,84647,12085,83244
82625,74617,84647,48314,83244
82625,74617,84647,38848,83244
82625,74617,84647,12085,83244
82625,74617,84647,48314,83244
82625,74617,84647,48314,83244
82625,74617,84647,12085,83244
82625,74617,84647,72809,83244
82625,74617,84647,12085,83244
82625,74617,84647,12085,83244
82625,41743,84647,72809,83244
82625,21958,84647,12085,83244
82625,41743,84647,48314,83244
82625,41743,84647,48314,83244
82625,74617,84647,12085,83244
82625,74617,84647,12085,83244
82625,41743,84647,72809,83244
44614,78261,84647,72809,83244
44614,78261,84647,48314,83244
4563,21958,84647,62264,83244
4563,21958,84647,62264,83244
44614,78261,84647,48314,83244
44614,78261,84647,48314,83244
74284,41743,84647,62264,83244
82625,41743,84647,72809,83244
44614,74617,84647,48314,83244
82625,21958,84647,12085,83244
4563,74617,84647,62264,83244
44614,74617,84647,72809,83244
44614,74617,84647,48314,83244
82625,74617,84647,12085,83244
82625,41743,84647,72809,83244
82625,21958,84647,38848,83244
82625,74617,84647,12085,83244
44614,41743,84647,48314,83244
82625,74617,84647,12085,83244
82625,74617,84647,12085,83244
82625,21958,84647,38848,83244
82625,21958,84647,38848,83244
82625,21958,84647,38848,83244
82625,21958,84647,48314,83244
82625,21958,84647,38848,83244
82625,21958,84647,12085,83244
44614,78261,84647,72809,83244
82625,74617,84647,12085,83244
82625,74617,84647,12085,83244
82625,21958,84647,12085,83244
82625,74617,84647,12085,83244
82625,74617,84647,48314,83244
44614,41743,84647,48314,83244
82625,21958,84647,38848,83244
82625,74617,84647,12085,83244
82625,74617,84647,12085,83244
